c description: Tseitin formula on , with even charge
c generator: CNFgen (0.9.0)
c copyright: (C) 2012-2020 Massimo Lauria <massimo.lauria@uniroma1.it>
c url: https://massimolauria.net/cnfgen
c
p cnf 40 269
1 -2 0
-1 2 0
3 4 5 -6 0
3 4 -5 6 0
3 -4 5 6 0
3 -4 -5 -6 0
-3 4 5 6 0
-3 4 -5 -6 0
-3 -4 5 -6 0
-3 -4 -5 6 0
3 7 8 -9 0
3 7 -8 9 0
3 -7 8 9 0
3 -7 -8 -9 0
-3 7 8 9 0
-3 7 -8 -9 0
-3 -7 8 -9 0
-3 -7 -8 9 0
1 4 10 11 -12 0
1 4 10 -11 12 0
1 4 -10 11 12 0
1 4 -10 -11 -12 0
1 -4 10 11 12 0
1 -4 10 -11 -12 0
1 -4 -10 11 -12 0
1 -4 -10 -11 12 0
-1 4 10 11 12 0
-1 4 10 -11 -12 0
-1 4 -10 11 -12 0
-1 4 -10 -11 12 0
-1 -4 10 11 -12 0
-1 -4 10 -11 12 0
-1 -4 -10 11 12 0
-1 -4 -10 -11 -12 0
13 -14 0
-13 14 0
7 15 16 17 18 19 -20 0
7 15 16 17 18 -19 20 0
7 15 16 17 -18 19 20 0
7 15 16 17 -18 -19 -20 0
7 15 16 -17 18 19 20 0
7 15 16 -17 18 -19 -20 0
7 15 16 -17 -18 19 -20 0
7 15 16 -17 -18 -19 20 0
7 15 -16 17 18 19 20 0
7 15 -16 17 18 -19 -20 0
7 15 -16 17 -18 19 -20 0
7 15 -16 17 -18 -19 20 0
7 15 -16 -17 18 19 -20 0
7 15 -16 -17 18 -19 20 0
7 15 -16 -17 -18 19 20 0
7 15 -16 -17 -18 -19 -20 0
7 -15 16 17 18 19 20 0
7 -15 16 17 18 -19 -20 0
7 -15 16 17 -18 19 -20 0
7 -15 16 17 -18 -19 20 0
7 -15 16 -17 18 19 -20 0
7 -15 16 -17 18 -19 20 0
7 -15 16 -17 -18 19 20 0
7 -15 16 -17 -18 -19 -20 0
7 -15 -16 17 18 19 -20 0
7 -15 -16 17 18 -19 20 0
7 -15 -16 17 -18 19 20 0
7 -15 -16 17 -18 -19 -20 0
7 -15 -16 -17 18 19 20 0
7 -15 -16 -17 18 -19 -20 0
7 -15 -16 -17 -18 19 -20 0
7 -15 -16 -17 -18 -19 20 0
-7 15 16 17 18 19 20 0
-7 15 16 17 18 -19 -20 0
-7 15 16 17 -18 19 -20 0
-7 15 16 17 -18 -19 20 0
-7 15 16 -17 18 19 -20 0
-7 15 16 -17 18 -19 20 0
-7 15 16 -17 -18 19 20 0
-7 15 16 -17 -18 -19 -20 0
-7 15 -16 17 18 19 -20 0
-7 15 -16 17 18 -19 20 0
-7 15 -16 17 -18 19 20 0
-7 15 -16 17 -18 -19 -20 0
-7 15 -16 -17 18 19 20 0
-7 15 -16 -17 18 -19 -20 0
-7 15 -16 -17 -18 19 -20 0
-7 15 -16 -17 -18 -19 20 0
-7 -15 16 17 18 19 -20 0
-7 -15 16 17 18 -19 20 0
-7 -15 16 17 -18 19 20 0
-7 -15 16 17 -18 -19 -20 0
-7 -15 16 -17 18 19 20 0
-7 -15 16 -17 18 -19 -20 0
-7 -15 16 -17 -18 19 -20 0
-7 -15 16 -17 -18 -19 20 0
-7 -15 -16 17 18 19 20 0
-7 -15 -16 17 18 -19 -20 0
-7 -15 -16 17 -18 19 -20 0
-7 -15 -16 17 -18 -19 20 0
-7 -15 -16 -17 18 19 -20 0
-7 -15 -16 -17 18 -19 20 0
-7 -15 -16 -17 -18 19 20 0
-7 -15 -16 -17 -18 -19 -20 0
15 21 22 23 -24 0
15 21 22 -23 24 0
15 21 -22 23 24 0
15 21 -22 -23 -24 0
15 -21 22 23 24 0
15 -21 22 -23 -24 0
15 -21 -22 23 -24 0
15 -21 -22 -23 24 0
-15 21 22 23 24 0
-15 21 22 -23 -24 0
-15 21 -22 23 -24 0
-15 21 -22 -23 24 0
-15 -21 22 23 -24 0
-15 -21 22 -23 24 0
-15 -21 -22 23 24 0
-15 -21 -22 -23 -24 0
-25 0
26 27 28 29 -30 0
26 27 28 -29 30 0
26 27 -28 29 30 0
26 27 -28 -29 -30 0
26 -27 28 29 30 0
26 -27 28 -29 -30 0
26 -27 -28 29 -30 0
26 -27 -28 -29 30 0
-26 27 28 29 30 0
-26 27 28 -29 -30 0
-26 27 -28 29 -30 0
-26 27 -28 -29 30 0
-26 -27 28 29 -30 0
-26 -27 28 -29 30 0
-26 -27 -28 29 30 0
-26 -27 -28 -29 -30 0
8 10 16 26 31 -32 0
8 10 16 26 -31 32 0
8 10 16 -26 31 32 0
8 10 16 -26 -31 -32 0
8 10 -16 26 31 32 0
8 10 -16 26 -31 -32 0
8 10 -16 -26 31 -32 0
8 10 -16 -26 -31 32 0
8 -10 16 26 31 32 0
8 -10 16 26 -31 -32 0
8 -10 16 -26 31 -32 0
8 -10 16 -26 -31 32 0
8 -10 -16 26 31 -32 0
8 -10 -16 26 -31 32 0
8 -10 -16 -26 31 32 0
8 -10 -16 -26 -31 -32 0
-8 10 16 26 31 32 0
-8 10 16 26 -31 -32 0
-8 10 16 -26 31 -32 0
-8 10 16 -26 -31 32 0
-8 10 -16 26 31 -32 0
-8 10 -16 26 -31 32 0
-8 10 -16 -26 31 32 0
-8 10 -16 -26 -31 -32 0
-8 -10 16 26 31 -32 0
-8 -10 16 26 -31 32 0
-8 -10 16 -26 31 32 0
-8 -10 16 -26 -31 -32 0
-8 -10 -16 26 31 32 0
-8 -10 -16 26 -31 -32 0
-8 -10 -16 -26 31 -32 0
-8 -10 -16 -26 -31 32 0
13 27 33 -34 0
13 27 -33 34 0
13 -27 33 34 0
13 -27 -33 -34 0
-13 27 33 34 0
-13 27 -33 -34 0
-13 -27 33 -34 0
-13 -27 -33 34 0
28 -33 0
-28 33 0
11 21 29 35 -36 0
11 21 29 -35 36 0
11 21 -29 35 36 0
11 21 -29 -35 -36 0
11 -21 29 35 36 0
11 -21 29 -35 -36 0
11 -21 -29 35 -36 0
11 -21 -29 -35 36 0
-11 21 29 35 36 0
-11 21 29 -35 -36 0
-11 21 -29 35 -36 0
-11 21 -29 -35 36 0
-11 -21 29 35 -36 0
-11 -21 29 -35 36 0
-11 -21 -29 35 36 0
-11 -21 -29 -35 -36 0
5 9 17 35 -37 0
5 9 17 -35 37 0
5 9 -17 35 37 0
5 9 -17 -35 -37 0
5 -9 17 35 37 0
5 -9 17 -35 -37 0
5 -9 -17 35 -37 0
5 -9 -17 -35 37 0
-5 9 17 35 37 0
-5 9 17 -35 -37 0
-5 9 -17 35 -37 0
-5 9 -17 -35 37 0
-5 -9 17 35 -37 0
-5 -9 17 -35 37 0
-5 -9 -17 35 37 0
-5 -9 -17 -35 -37 0
30 36 -38 0
30 -36 38 0
-30 36 38 0
-30 -36 -38 0
14 18 22 -38 0
14 18 -22 38 0
14 -18 22 38 0
14 -18 -22 -38 0
-14 18 22 38 0
-14 18 -22 -38 0
-14 -18 22 -38 0
-14 -18 -22 38 0
2 19 23 -31 0
2 19 -23 31 0
2 -19 23 31 0
2 -19 -23 -31 0
-2 19 23 31 0
-2 19 -23 -31 0
-2 -19 23 -31 0
-2 -19 -23 31 0
20 25 32 37 39 -40 0
20 25 32 37 -39 40 0
20 25 32 -37 39 40 0
20 25 32 -37 -39 -40 0
20 25 -32 37 39 40 0
20 25 -32 37 -39 -40 0
20 25 -32 -37 39 -40 0
20 25 -32 -37 -39 40 0
20 -25 32 37 39 40 0
20 -25 32 37 -39 -40 0
20 -25 32 -37 39 -40 0
20 -25 32 -37 -39 40 0
20 -25 -32 37 39 -40 0
20 -25 -32 37 -39 40 0
20 -25 -32 -37 39 40 0
20 -25 -32 -37 -39 -40 0
-20 25 32 37 39 40 0
-20 25 32 37 -39 -40 0
-20 25 32 -37 39 -40 0
-20 25 32 -37 -39 40 0
-20 25 -32 37 39 -40 0
-20 25 -32 37 -39 40 0
-20 25 -32 -37 39 40 0
-20 25 -32 -37 -39 -40 0
-20 -25 32 37 39 -40 0
-20 -25 32 37 -39 40 0
-20 -25 32 -37 39 40 0
-20 -25 32 -37 -39 -40 0
-20 -25 -32 37 39 40 0
-20 -25 -32 37 -39 -40 0
-20 -25 -32 -37 39 -40 0
-20 -25 -32 -37 -39 40 0
6 -39 0
-6 39 0
12 24 34 -40 0
12 24 -34 40 0
12 -24 34 40 0
12 -24 -34 -40 0
-12 24 34 40 0
-12 24 -34 -40 0
-12 -24 34 -40 0
-12 -24 -34 40 0